objective value:                     2.03457383922307
x(0,4,0)                                            1 	(obj:0)
x(1,2,0)                                            1 	(obj:0)
x(2,9,0)                                            1 	(obj:0)
x(3,10,0)                                           1 	(obj:0)
x(4,1,0)                                            1 	(obj:0)
x(9,3,0)                                            1 	(obj:0)
x(10,0,0)                                           1 	(obj:0)
xc(2,1)                                             1 	(obj:0)
xc(3,0)                                             1 	(obj:0)
xc(4,0)                                             1 	(obj:0)
u(1,0)                              0.598877519702941 	(obj:0)
u(2,0)                              0.788241607548637 	(obj:0)
u(3,0)                               1.94485829892475 	(obj:0)
u(4,0)                              0.218786827747265 	(obj:0)
u(9,0)                               1.57642667970934 	(obj:0)
u(10,0)                              2.03457383922307 	(obj:0)
u(11,0)                             0.507503206365801 	(obj:0)
u(12,0)                             0.666176295146951 	(obj:0)
u(13,0)                            0.0883175857122502 	(obj:0)
u(14,0)                              0.16576129410954 	(obj:0)
u(15,0)                             0.672972824330021 	(obj:0)
u(16,0)                             0.253979870922521 	(obj:0)
u(17,0)                             0.309114326738271 	(obj:0)
u(18,0)                             0.624002637528131 	(obj:0)
u(19,0)                             0.456747288680591 	(obj:0)
f(0,4,0)                                            1 	(obj:0)
f(0,4,3)                                            1 	(obj:0)
f(1,2,0)                                            1 	(obj:0)
f(1,2,1)                                            1 	(obj:0)
f(1,2,3)                                            1 	(obj:0)
f(1,2,4)                                            1 	(obj:0)
f(2,9,0)                                            1 	(obj:0)
f(2,9,1)                                            1 	(obj:0)
f(2,9,2)                                            1 	(obj:0)
f(2,9,3)                                            1 	(obj:0)
f(2,9,4)                                            1 	(obj:0)
f(3,0,3)                                            1 	(obj:0)
f(4,1,0)                                            1 	(obj:0)
f(4,1,3)                                            1 	(obj:0)
f(4,1,4)                                            1 	(obj:0)
z_r(0,)                              2.03457383922307 	(obj:0)
z                                    2.03457383922307 	(obj:1)
